; CALLER SWAP1 POP PUSH cw_3 PUSH cw_2 SWAP1 => POP CALLER PUSH cw_2 PUSH cw_3
(set-option :produce-proofs true)
; 
(set-info :status unknown)
(declare-fun storage_t ((_ BitVec 256) (_ BitVec 256) (_ BitVec 256) (_ BitVec 256) Int (_ BitVec 256)) (_ BitVec 256))
(declare-fun w_2 () (_ BitVec 256))
(declare-fun w_3 () (_ BitVec 256))
(declare-fun storage_s ((_ BitVec 256) (_ BitVec 256) (_ BitVec 256) (_ BitVec 256) Int (_ BitVec 256)) (_ BitVec 256))
(declare-fun exc_halt_t (Int) Bool)
(declare-fun exc_halt_s (Int) Bool)
(declare-fun sc_t (Int) (_ BitVec 6))
(declare-fun stack_t ((_ BitVec 256) (_ BitVec 256) (_ BitVec 256) (_ BitVec 256) Int (_ BitVec 6)) (_ BitVec 256))
(declare-fun stack_s ((_ BitVec 256) (_ BitVec 256) (_ BitVec 256) (_ BitVec 256) Int (_ BitVec 6)) (_ BitVec 256))
(declare-fun sc_s (Int) (_ BitVec 6))
(declare-fun used_gas_t ((_ BitVec 256) (_ BitVec 256) (_ BitVec 256) (_ BitVec 256) Int) Int)
(declare-fun used_gas_s ((_ BitVec 256) (_ BitVec 256) (_ BitVec 256) (_ BitVec 256) Int) Int)
(assert
 (exists ((x_0 (_ BitVec 256)) (x_CALLER (_ BitVec 256)) )(let (($x11959 (forall ((w (_ BitVec 256)) )(let ((?x3616 (storage_t x_0 w_3 w_2 x_CALLER 4 w)))
 (let ((?x7539 (storage_s x_0 w_3 w_2 x_CALLER 6 w)))
 (= ?x7539 ?x3616))))
 ))
 (let (($x7854 (exc_halt_t 4)))
 (let (($x7121 (exc_halt_s 6)))
 (let (($x10095 (= $x7121 $x7854)))
 (let (($x5031 (forall ((n (_ BitVec 6)) )(let ((?x7495 (sc_t 4)))
 (let (($x11017 (bvsle ?x7495 n)))
 (let ((?x9666 (stack_t x_0 w_3 w_2 x_CALLER 4 n)))
 (let ((?x8927 (stack_s x_0 w_3 w_2 x_CALLER 6 n)))
 (let (($x3204 (= ?x8927 ?x9666)))
 (or $x3204 $x11017)))))))
 ))
 (let ((?x7495 (sc_t 4)))
 (let ((?x9114 (sc_s 6)))
 (let (($x2362 (= ?x9114 ?x7495)))
 (let ((?x10125 (used_gas_t x_0 w_3 w_2 x_CALLER 0)))
 (let ((?x11521 (used_gas_s x_0 w_3 w_2 x_CALLER 0)))
 (let (($x2483 (= ?x11521 ?x10125)))
 (let (($x11653 (forall ((w (_ BitVec 256)) )(let ((?x2561 (storage_t x_0 w_3 w_2 x_CALLER 0 w)))
 (let ((?x9769 (storage_s x_0 w_3 w_2 x_CALLER 0 w)))
 (= ?x9769 ?x2561))))
 ))
 (let (($x56 (exc_halt_t 0)))
 (let (($x57 (exc_halt_s 0)))
 (let (($x58 (= $x57 $x56)))
 (let (($x3170 (forall ((n (_ BitVec 6)) )(let ((?x7314 (stack_t x_0 w_3 w_2 x_CALLER 0 n)))
 (let ((?x9117 (stack_s x_0 w_3 w_2 x_CALLER 0 n)))
 (let (($x5987 (= ?x9117 ?x7314)))
 (let ((?x63 (sc_t 0)))
 (let (($x3394 (bvsle ?x63 n)))
 (or $x3394 $x5987)))))))
 ))
 (let ((?x63 (sc_t 0)))
 (let ((?x72 (sc_s 0)))
 (let (($x73 (= ?x72 ?x63)))
 (let (($x1058 (not (= ((_ extract 6 6) (bvadd (_ bv1 7) (concat (_ bv0 1) (sc_t 3)))) (_ bv0 1)))))
 (let (($x9131 (exc_halt_t 3)))
 (let (($x1218 (= $x7854 (or $x9131 $x1058))))
 (let (($x11129 (forall ((w (_ BitVec 256)) )(let ((?x5657 (storage_t x_0 w_3 w_2 x_CALLER 3 w)))
 (let ((?x3616 (storage_t x_0 w_3 w_2 x_CALLER 4 w)))
 (= ?x3616 ?x5657))))
 ))
 (let (($x8791 (forall ((n (_ BitVec 6)) )(let ((?x10013 (sc_t 3)))
 (let (($x11349 (bvsle ?x10013 n)))
 (let ((?x1235 (stack_t x_0 w_3 w_2 x_CALLER 3 n)))
 (let ((?x9666 (stack_t x_0 w_3 w_2 x_CALLER 4 n)))
 (let (($x8022 (= ?x9666 ?x1235)))
 (or $x8022 $x11349)))))))
 ))
 (let (($x6160 (= ?x7495 (bvadd (_ bv1 6) (sc_t 3)))))
 (let ((?x1971 (used_gas_t x_0 w_3 w_2 x_CALLER 4)))
 (let (($x3486 (= ?x1971 (+ 3 (used_gas_t x_0 w_3 w_2 x_CALLER 3)))))
 (let (($x9679 (not (= ((_ extract 6 6) (bvadd (_ bv1 7) (concat (_ bv0 1) (sc_t 2)))) (_ bv0 1)))))
 (let (($x2189 (exc_halt_t 2)))
 (let (($x807 (= $x9131 (or $x2189 $x9679))))
 (let (($x2311 (forall ((w (_ BitVec 256)) )(let ((?x3046 (storage_t x_0 w_3 w_2 x_CALLER 2 w)))
 (let ((?x5657 (storage_t x_0 w_3 w_2 x_CALLER 3 w)))
 (= ?x5657 ?x3046))))
 ))
 (let (($x7619 (forall ((n (_ BitVec 6)) )(let ((?x2608 (stack_t x_0 w_3 w_2 x_CALLER 2 n)))
 (let ((?x1235 (stack_t x_0 w_3 w_2 x_CALLER 3 n)))
 (let (($x9384 (= ?x1235 ?x2608)))
 (let ((?x6718 (sc_t 2)))
 (let (($x4178 (bvsle ?x6718 n)))
 (or $x4178 $x9384)))))))
 ))
 (let ((?x10013 (sc_t 3)))
 (let (($x10225 (= ?x10013 (bvadd (_ bv1 6) (sc_t 2)))))
 (let ((?x2058 (used_gas_t x_0 w_3 w_2 x_CALLER 3)))
 (let (($x11299 (= ?x2058 (+ 3 (used_gas_t x_0 w_3 w_2 x_CALLER 2)))))
 (let (($x1944 (not (= ((_ extract 6 6) (bvadd (_ bv1 7) (concat (_ bv0 1) (sc_t 1)))) (_ bv0 1)))))
 (let (($x11058 (exc_halt_t 1)))
 (let (($x6995 (= $x2189 (or $x11058 $x1944))))
 (let (($x5035 (forall ((w (_ BitVec 256)) )(let ((?x1857 (storage_t x_0 w_3 w_2 x_CALLER 1 w)))
 (let ((?x3046 (storage_t x_0 w_3 w_2 x_CALLER 2 w)))
 (= ?x3046 ?x1857))))
 ))
 (let (($x501 (forall ((n (_ BitVec 6)) )(let ((?x2707 (sc_t 1)))
 (let (($x6519 (bvsle ?x2707 n)))
 (let ((?x8830 (stack_t x_0 w_3 w_2 x_CALLER 1 n)))
 (let ((?x2608 (stack_t x_0 w_3 w_2 x_CALLER 2 n)))
 (let (($x4443 (= ?x2608 ?x8830)))
 (or $x4443 $x6519)))))))
 ))
 (let ((?x6718 (sc_t 2)))
 (let (($x7211 (= ?x6718 (bvadd (_ bv1 6) (sc_t 1)))))
 (let ((?x4768 (used_gas_t x_0 w_3 w_2 x_CALLER 2)))
 (let (($x9856 (forall ((w (_ BitVec 256)) )(let ((?x2561 (storage_t x_0 w_3 w_2 x_CALLER 0 w)))
 (let ((?x1857 (storage_t x_0 w_3 w_2 x_CALLER 1 w)))
 (= ?x1857 ?x2561))))
 ))
 (let (($x801 (forall ((n (_ BitVec 6)) )(let ((?x7314 (stack_t x_0 w_3 w_2 x_CALLER 0 n)))
 (let ((?x8830 (stack_t x_0 w_3 w_2 x_CALLER 1 n)))
 (let (($x8333 (= ?x8830 ?x7314)))
 (let ((?x63 (sc_t 0)))
 (let ((?x9978 (bvadd (_ bv63 6) ?x63)))
 (let (($x4540 (bvsle ?x9978 n)))
 (or $x4540 $x8333))))))))
 ))
 (let (($x6199 (= $x7121 (or (exc_halt_s 5) (not (bvsle (_ bv0 6) (bvadd (_ bv62 6) (sc_s 5))))))))
 (let (($x10732 (forall ((w (_ BitVec 256)) )(let ((?x1874 (storage_s x_0 w_3 w_2 x_CALLER 5 w)))
 (let ((?x7539 (storage_s x_0 w_3 w_2 x_CALLER 6 w)))
 (= ?x7539 ?x1874))))
 ))
 (let (($x1007 (forall ((n (_ BitVec 6)) )(let ((?x103 (stack_s x_0 w_3 w_2 x_CALLER 5 n)))
 (let ((?x8927 (stack_s x_0 w_3 w_2 x_CALLER 6 n)))
 (let (($x10039 (= ?x8927 ?x103)))
 (let ((?x4319 (sc_s 5)))
 (let ((?x10181 (bvadd (_ bv62 6) ?x4319)))
 (let (($x6797 (bvsle ?x10181 n)))
 (or $x6797 $x10039))))))))
 ))
 (let ((?x4319 (sc_s 5)))
 (let (($x1799 (= ?x9114 ?x4319)))
 (let (($x6653 (= (used_gas_s x_0 w_3 w_2 x_CALLER 6) (+ 3 (used_gas_s x_0 w_3 w_2 x_CALLER 5)))))
 (let ((?x11189 (bvadd (_ bv63 6) ?x4319)))
 (let ((?x3797 (stack_s x_0 w_3 w_2 x_CALLER 5 ?x11189)))
 (let ((?x2117 (bvadd (_ bv62 6) ?x9114)))
 (let ((?x4175 (stack_s x_0 w_3 w_2 x_CALLER 6 ?x2117)))
 (let ((?x10181 (bvadd (_ bv62 6) ?x4319)))
 (let ((?x7316 (stack_s x_0 w_3 w_2 x_CALLER 5 ?x10181)))
 (let ((?x9883 (bvadd (_ bv63 6) ?x9114)))
 (let ((?x3415 (stack_s x_0 w_3 w_2 x_CALLER 6 ?x9883)))
 (let (($x9175 (exc_halt_s 4)))
 (let (($x7111 (or $x9175 (not (= ((_ extract 6 6) (bvadd (_ bv1 7) (concat (_ bv0 1) (sc_s 4)))) (_ bv0 1))))))
 (let (($x1862 (exc_halt_s 5)))
 (let (($x7463 (= $x1862 $x7111)))
 (let (($x11145 (forall ((w (_ BitVec 256)) )(let ((?x10478 (storage_s x_0 w_3 w_2 x_CALLER 4 w)))
 (let ((?x1874 (storage_s x_0 w_3 w_2 x_CALLER 5 w)))
 (= ?x1874 ?x10478))))
 ))
 (let (($x11780 (forall ((n (_ BitVec 6)) )(let ((?x10050 (stack_s x_0 w_3 w_2 x_CALLER 4 n)))
 (let ((?x103 (stack_s x_0 w_3 w_2 x_CALLER 5 n)))
 (let ((?x9433 (sc_s 4)))
 (let (($x1106 (bvsle ?x9433 n)))
 (or $x1106 (= ?x103 ?x10050)))))))
 ))
 (let (($x3789 (= ?x4319 (bvadd (_ bv1 6) (sc_s 4)))))
 (let ((?x3437 (used_gas_s x_0 w_3 w_2 x_CALLER 5)))
 (let (($x7581 (= ?x3437 (+ 3 (used_gas_s x_0 w_3 w_2 x_CALLER 4)))))
 (let (($x4733 (= (stack_s x_0 w_3 w_2 x_CALLER 5 (sc_s 4)) w_2)))
 (let (($x3585 (not (= ((_ extract 6 6) (bvadd (_ bv1 7) (concat (_ bv0 1) (sc_s 3)))) (_ bv0 1)))))
 (let (($x8103 (exc_halt_s 3)))
 (let (($x4909 (forall ((w (_ BitVec 256)) )(let ((?x4604 (storage_s x_0 w_3 w_2 x_CALLER 3 w)))
 (let ((?x10478 (storage_s x_0 w_3 w_2 x_CALLER 4 w)))
 (= ?x10478 ?x4604))))
 ))
 (let (($x2310 (forall ((n (_ BitVec 6)) )(let ((?x8183 (stack_s x_0 w_3 w_2 x_CALLER 3 n)))
 (let ((?x10050 (stack_s x_0 w_3 w_2 x_CALLER 4 n)))
 (let (($x8067 (= ?x10050 ?x8183)))
 (or $x8067 (bvsle (sc_s 3) n))))))
 ))
 (let ((?x9433 (sc_s 4)))
 (let (($x3327 (= ?x9433 (bvadd (_ bv1 6) (sc_s 3)))))
 (let ((?x6125 (used_gas_s x_0 w_3 w_2 x_CALLER 4)))
 (let (($x11100 (= ?x6125 (+ 3 (used_gas_s x_0 w_3 w_2 x_CALLER 3)))))
 (let (($x4084 (= $x8103 (or (exc_halt_s 2) (not (bvsle (_ bv0 6) (bvadd (_ bv63 6) (sc_s 2))))))))
 (let (($x5714 (forall ((w (_ BitVec 256)) )(let ((?x4446 (storage_s x_0 w_3 w_2 x_CALLER 2 w)))
 (let ((?x4604 (storage_s x_0 w_3 w_2 x_CALLER 3 w)))
 (= ?x4604 ?x4446))))
 ))
 (let (($x6567 (forall ((n (_ BitVec 6)) )(let ((?x8230 (stack_s x_0 w_3 w_2 x_CALLER 2 n)))
 (let ((?x8183 (stack_s x_0 w_3 w_2 x_CALLER 3 n)))
 (let ((?x2272 (sc_s 2)))
 (let ((?x7154 (bvadd (_ bv63 6) ?x2272)))
 (let (($x2805 (bvsle ?x7154 n)))
 (or $x2805 (= ?x8183 ?x8230))))))))
 ))
 (let ((?x2272 (sc_s 2)))
 (let ((?x7154 (bvadd (_ bv63 6) ?x2272)))
 (let ((?x3851 (sc_s 3)))
 (let (($x7163 (= ?x3851 ?x7154)))
 (let ((?x7231 (used_gas_s x_0 w_3 w_2 x_CALLER 3)))
 (let (($x10052 (exc_halt_s 2)))
 (let (($x668 (= $x10052 (or (exc_halt_s 1) (not (bvsle (_ bv0 6) (bvadd (_ bv62 6) (sc_s 1))))))))
 (let (($x9570 (forall ((w (_ BitVec 256)) )(let ((?x11654 (storage_s x_0 w_3 w_2 x_CALLER 1 w)))
 (let ((?x4446 (storage_s x_0 w_3 w_2 x_CALLER 2 w)))
 (= ?x4446 ?x11654))))
 ))
 (let (($x3657 (forall ((n (_ BitVec 6)) )(let ((?x154 (sc_s 1)))
 (let ((?x5960 (bvadd (_ bv62 6) ?x154)))
 (let (($x7982 (bvsle ?x5960 n)))
 (let ((?x9253 (stack_s x_0 w_3 w_2 x_CALLER 1 n)))
 (let ((?x8230 (stack_s x_0 w_3 w_2 x_CALLER 2 n)))
 (or (= ?x8230 ?x9253) $x7982)))))))
 ))
 (let ((?x154 (sc_s 1)))
 (let (($x7478 (= ?x2272 ?x154)))
 (let ((?x9641 (used_gas_s x_0 w_3 w_2 x_CALLER 2)))
 (let (($x11113 (= ?x9641 (+ 3 (used_gas_s x_0 w_3 w_2 x_CALLER 1)))))
 (let ((?x2547 (bvadd (_ bv63 6) ?x154)))
 (let ((?x7477 (stack_s x_0 w_3 w_2 x_CALLER 1 ?x2547)))
 (let ((?x5960 (bvadd (_ bv62 6) ?x154)))
 (let ((?x11333 (stack_s x_0 w_3 w_2 x_CALLER 1 ?x5960)))
 (let ((?x5411 (stack_s x_0 w_3 w_2 x_CALLER 2 ?x7154)))
 (let (($x10003 (= ?x5411 ?x11333)))
 (let (($x8780 (exc_halt_s 1)))
 (let (($x426 (= $x8780 (or $x57 (not (= ((_ extract 6 6) (bvadd (_ bv1 7) (concat (_ bv0 1) ?x72))) (_ bv0 1)))))))
 (let (($x5961 (forall ((w (_ BitVec 256)) )(let ((?x9769 (storage_s x_0 w_3 w_2 x_CALLER 0 w)))
 (let ((?x11654 (storage_s x_0 w_3 w_2 x_CALLER 1 w)))
 (= ?x11654 ?x9769))))
 ))
 (let (($x3158 (forall ((n (_ BitVec 6)) )(let ((?x9117 (stack_s x_0 w_3 w_2 x_CALLER 0 n)))
 (let ((?x9253 (stack_s x_0 w_3 w_2 x_CALLER 1 n)))
 (let ((?x72 (sc_s 0)))
 (let (($x1781 (bvsle ?x72 n)))
 (or $x1781 (= ?x9253 ?x9117)))))))
 ))
 (let (($x4355 (= ?x154 (bvadd (_ bv1 6) ?x72))))
 (let (($x3521 (forall ((w (_ BitVec 256)) )(let ((?x9769 (storage_s x_0 w_3 w_2 x_CALLER 0 w)))
 (= ?x9769 (_ bv0 256))))
 ))
 (let (($x8385 (= ?x11521 0)))
 (let (($x7103 (not $x57)))
 (let (($x10740 (= (stack_s x_0 w_3 w_2 x_CALLER 0 (_ bv0 6)) x_0)))
 (let (($x7461 (= ?x72 (_ bv1 6))))
 (and $x7461 $x10740 $x7103 $x8385 $x3521 (= (stack_s x_0 w_3 w_2 x_CALLER 1 ?x72) x_CALLER) (= (used_gas_s x_0 w_3 w_2 x_CALLER 1) (+ 2 ?x11521)) $x4355 $x3158 $x5961 $x426 $x10003 (= (stack_s x_0 w_3 w_2 x_CALLER 2 (bvadd (_ bv62 6) ?x2272)) ?x7477) $x11113 $x7478 $x3657 $x9570 $x668 (= ?x7231 (+ 2 ?x9641)) $x7163 $x6567 $x5714 $x4084 (= (stack_s x_0 w_3 w_2 x_CALLER 4 ?x3851) w_3) $x11100 $x3327 $x2310 $x4909 (= $x9175 (or $x8103 $x3585)) $x4733 $x7581 $x3789 $x11780 $x11145 $x7463 (= ?x3415 ?x7316) (= ?x4175 ?x3797) $x6653 $x1799 $x1007 $x10732 $x6199 (= (used_gas_t x_0 w_3 w_2 x_CALLER 1) (+ 2 ?x10125)) (= (sc_t 1) (bvadd (_ bv63 6) ?x63)) $x801 $x9856 (= $x11058 (or $x56 (not (bvsle (_ bv0 6) (bvadd (_ bv63 6) ?x63))))) (= (stack_t x_0 w_3 w_2 x_CALLER 2 (sc_t 1)) x_CALLER) (= ?x4768 (+ 2 (used_gas_t x_0 w_3 w_2 x_CALLER 1))) $x7211 $x501 $x5035 $x6995 (= (stack_t x_0 w_3 w_2 x_CALLER 3 ?x6718) w_2) $x11299 $x10225 $x7619 $x2311 $x807 (= (stack_t x_0 w_3 w_2 x_CALLER 4 ?x10013) w_3) $x3486 $x6160 $x8791 $x11129 $x1218 $x73 $x3170 $x58 $x11653 $x2483 (not (and $x2362 $x5031 $x10095 $x11959))))))))))))))))))))))))))))))))))))))))))))))))))))))))))))))))))))))))))))))))))))))))))))))))))))))))))))))))))
 )
(check-sat)
(get-proof)
